100 151654
13 76 79 4 20 55 8 18 96 85 36 1 51 60 35 27 22 92 62 45 91 59 67 89 88 28 68 90 56 26 58 52 84 40 93 66 61 77 21 17 73 87 30 49 81 38 98 14 69 6 86 3 12 50 99 24 32 10 37 48 82 78 46 64 95 63 15 16 44 47 97 83 25 23 2 29 71 11 43 70 75 19 74 41 65 100 39 72 9 53 34 42 57 33 94 80 54 31 5 7 
